57286
35, 24, 50, 20, 5, 41, 32, 38, 8, 44, 19, 17, 23, 53, 54, 34, 47, 4, 30, 18, 12, 9, 14, 2, 42, 33, 27, 1, 25, 31, 11, 45, 52, 15, 36, 46, 39, 16, 10, 29, 22, 21, 48, 49, 55, 26, 6, 28, 3, 43, 13, 51, 40, 7, 37
